# Solution for model GasLib-40
# Objective value = 3.8406438277362213e+01
loadshed[innode_1] 0
loadshed[innode_2] 0
loadshed[innode_3] 0
loadshed[innode_4] 0
loadshed[innode_5] 0
loadshed[innode_6] 0
loadshed[innode_7] 0
loadshed[innode_8] 0
loadshed[source_1] -2.0897507628240231e-01
loadshed[source_2] 0.166242855380471
loadshed[source_3] 2.8567213357211318e-01
loadshed[sink_1] 0
loadshed[sink_2] 0
loadshed[sink_3] 0
loadshed[sink_4] 0
loadshed[sink_5] 0
loadshed[sink_6] 0
loadshed[sink_7] 0
loadshed[sink_8] 0
loadshed[sink_9] 0
loadshed[sink_10] 0
loadshed[sink_11] 0
loadshed[sink_12] 1
loadshed[sink_13] 0
loadshed[sink_14] 0
loadshed[sink_15] 0
loadshed[sink_16] 0
loadshed[sink_17] 0
loadshed[sink_18] 0
loadshed[sink_19] 0
loadshed[sink_20] 0
loadshed[sink_21] 1
loadshed[sink_22] 0
loadshed[sink_23] 0
loadshed[sink_24] 3.4841915581323046e-01
loadshed[sink_25] 0
loadshed[sink_26] 0
loadshed[sink_27] 0
loadshed[sink_28] 0
loadshed[sink_29] 0
flow[source_1,sink_3] 1.9112720563589505e+02
flow[innode_1,sink_16] 1.6354166666666970e+01
flow[innode_6,sink_13] 1.5508758386752177e+00
flow[sink_13,sink_14] -1.4803290827991450e+01
flow[sink_14,sink_10] -3.1157457494658118e+01
flow[sink_25,sink_26] 1.3006839100345579e+02
flow[sink_26,sink_9] 3.2708333333334551e+01
flow[sink_9,sink_18] 1.6354166666667879e+01
flow[sink_26,sink_4] 8.1005891003454565e+01
flow[sink_4,sink_20] -1.5567078623333387e+01
flow[sink_18,sink_6] 0
flow[sink_25,innode_8] -1.5841887230255870e+02
flow[sink_6,sink_7] -4.9062500000000313e+01
flow[sink_6,sink_22] 3.2708333333333641e+01
flow[sink_7,sink_24] 1.0656061722637796e+01
flow[sink_22,sink_1] 1.6354166666666970e+01
flow[sink_24,sink_21] 0
flow[sink_21,sink_12] 0
flow[sink_7,sink_5] -7.6072728389304771e+01
flow[sink_5,sink_17] -9.2426895055971443e+01
flow[sink_17,sink_4] -8.0218802960121280e+01
flow[sink_17,sink_8] -2.8562258762516816e+01
flow[sink_3,sink_23] 16.3541666666697
flow[sink_8,sink_20] -4.4916425429183484e+01
flow[sink_25,sink_20] 7.6837670719183592e+01
flow[sink_25,sink_15] -6.6392231925423246e+01
flow[sink_15,sink_29] -9.9100565258774168e+01
flow[sink_29,sink_28] 1.6354166666667879e+01
flow[sink_29,sink_2] 0
flow[sink_2,sink_15] -1.6354166666684250e+01
flow[sink_29,innode_7] -1.3180889859210816e+02
flow[innode_4,sink_19] 0
flow[sink_19,innode_3] 3.9147000649136807e+01
flow[innode_4,innode_5] 1.1292829082799197e+02
flow[sink_27,innode_5] -1.1292829082799197e+02
flow[sink_27,sink_19] 96.5741241613253
flow[sink_10,sink_11] 3.2708333333333641e+01
flow[sink_10,innode_2] -4.1072956845521617e+01
flow[sink_10,innode_3] -3.9147000649136807e+01
flow[innode_6,sink_25] -1.5508758386752177e+00
flow[sink_11,innode_1] 1.6354166666666970e+01
flow[sink_19,innode_2] 4.1072956845521617e+01
flow[source_3,innode_4] 1.1292829082799197e+02
flow[source_2,innode_7] 1.3180889859210816e+02
flow[sink_3,innode_8] 1.5841887230255870e+02
pressure[innode_1] 7.5602417002317637e+01
pressure[innode_2] 7.7924993716074582e+01
pressure[innode_3] 77.838307116054
pressure[innode_4] 81.01325
pressure[innode_5] 80.9355719668413
pressure[innode_6] 7.4262472289468079e+01
pressure[innode_7] 81.01325
pressure[innode_8] 80.3743847647982
pressure[source_1] 81.01325
pressure[source_2] 81.01325
pressure[source_3] 81.01325
pressure[sink_1] 1.0439057888962527e+01
pressure[sink_2] 7.4531146558580375e+01
pressure[sink_3] 80.3743847647982
pressure[sink_4] 5.4802533261240335e+01
pressure[sink_5] 4.4851699524547165e+01
pressure[sink_6] 1.2540135499349901e+01
pressure[sink_7] 1.3213646677050031e+01
pressure[sink_8] 5.2814563351464137e+01
pressure[sink_9] 6.3144153728140111e+01
pressure[sink_10] 7.5754118309921182e+01
pressure[sink_11] 7.5602417002317637e+01
pressure[sink_12] 1.01325
pressure[sink_13] 7.4253922570144880e+01
pressure[sink_14] 7.4280414320043135e+01
pressure[sink_15] 7.4584539308346820e+01
pressure[sink_16] 7.4580767167499957e+01
pressure[sink_17] 5.1736835125430787e+01
pressure[sink_18] 6.2552411234340411e+01
pressure[sink_19] 7.7924993716074582e+01
pressure[sink_20] 5.5944606532013196e+01
pressure[sink_21] 1.01325
pressure[sink_22] 1.1502827031317537e+01
pressure[sink_23] 80.2096667531384
pressure[sink_24] 1.01325
pressure[sink_25] 7.4262472289468079e+01
pressure[sink_26] 6.5101831896024720e+01
pressure[sink_27] 7.9998475822013475e+01
pressure[sink_28] 7.7192596049810916e+01
pressure[sink_29] 7.7487878323428092e+01
interdiction[source_1,sink_3] 0
interdiction[innode_1,sink_16] 0
interdiction[innode_6,sink_13] 0
interdiction[sink_13,sink_14] 0
interdiction[sink_14,sink_10] 0
interdiction[sink_25,sink_26] 0
interdiction[sink_26,sink_9] 0
interdiction[sink_9,sink_18] 0
interdiction[sink_26,sink_4] 0
interdiction[sink_4,sink_20] 0
interdiction[sink_18,sink_6] 1
interdiction[sink_25,innode_8] 0
interdiction[sink_6,sink_7] 0
interdiction[sink_6,sink_22] 0
interdiction[sink_7,sink_24] 0
interdiction[sink_22,sink_1] 0
interdiction[sink_24,sink_21] 0
interdiction[sink_21,sink_12] 0
interdiction[sink_7,sink_5] 0
interdiction[sink_5,sink_17] 0
interdiction[sink_17,sink_4] 0
interdiction[sink_17,sink_8] 0
interdiction[sink_3,sink_23] 0
interdiction[sink_8,sink_20] 0
interdiction[sink_25,sink_20] 0
interdiction[sink_25,sink_15] 0
interdiction[sink_15,sink_29] 0
interdiction[sink_29,sink_28] 0
interdiction[sink_29,sink_2] 1
interdiction[sink_2,sink_15] 0
interdiction[sink_29,innode_7] 0
interdiction[innode_4,sink_19] 1
interdiction[sink_19,innode_3] 0
interdiction[innode_4,innode_5] 0
interdiction[sink_27,innode_5] 0
interdiction[sink_27,sink_19] 0
interdiction[sink_10,sink_11] 0
interdiction[sink_10,innode_2] 0
interdiction[sink_10,innode_3] 0
interdiction[innode_6,sink_25] 0
interdiction[sink_11,innode_1] 0
interdiction[sink_19,innode_2] 0
interdiction[source_3,innode_4] 0
interdiction[source_2,innode_7] 0
interdiction[sink_3,innode_8] 0
WCcheckFlow[source_1,sink_3] 39
WCcheckFlow[innode_1,sink_16] 1
WCcheckFlow[innode_6,sink_13] 13
WCcheckFlow[sink_13,sink_14] 12
WCcheckFlow[sink_14,sink_10] 11
WCcheckFlow[sink_25,sink_26] 15
WCcheckFlow[sink_26,sink_9] 2
WCcheckFlow[sink_9,sink_18] 1
WCcheckFlow[sink_26,sink_4] 12
WCcheckFlow[sink_4,sink_20] 1
WCcheckFlow[sink_18,sink_6] 0
WCcheckFlow[sink_25,innode_8] -36
WCcheckFlow[sink_6,sink_7] -3
WCcheckFlow[sink_6,sink_22] 2
WCcheckFlow[sink_7,sink_24] 3
WCcheckFlow[sink_22,sink_1] 1
WCcheckFlow[sink_24,sink_21] 2
WCcheckFlow[sink_21,sink_12] 1
WCcheckFlow[sink_7,sink_5] -7
WCcheckFlow[sink_5,sink_17] -8
WCcheckFlow[sink_17,sink_4] -10
WCcheckFlow[sink_17,sink_8] 1
WCcheckFlow[sink_3,sink_23] 1
WCcheckFlow[sink_8,sink_20] 0
WCcheckFlow[sink_25,sink_20] 0
WCcheckFlow[sink_25,sink_15] 6
WCcheckFlow[sink_15,sink_29] 4
WCcheckFlow[sink_29,sink_28] 1
WCcheckFlow[sink_29,sink_2] 0
WCcheckFlow[sink_2,sink_15] -1
WCcheckFlow[sink_29,innode_7] 2
WCcheckFlow[innode_4,sink_19] 0
WCcheckFlow[sink_19,innode_3] -5
WCcheckFlow[innode_4,innode_5] -2
WCcheckFlow[sink_27,innode_5] 3
WCcheckFlow[sink_27,sink_19] -4
WCcheckFlow[sink_10,sink_11] 3
WCcheckFlow[sink_10,innode_2] 1
WCcheckFlow[sink_10,innode_3] 6
WCcheckFlow[innode_6,sink_25] -14
WCcheckFlow[sink_11,innode_1] 2
WCcheckFlow[sink_19,innode_2] 0
WCcheckFlow[source_3,innode_4] -1
WCcheckFlow[source_2,innode_7] -1
WCcheckFlow[sink_3,innode_8] 37
